100
32
20
27
10
5
29
13
5
17
7
25
18
19
25
10
18
11
30
12
9
8
1
9
19
3
3
4
1
18
2
2
1
1
17
4
1
5
1
7
6
1
18
2
2
1
3
4
1
1
2
3
3
1
4
3
2
18
2
1
1
19
1
1
19
12
2
3
3
1
17
2
4
2
1
2
18
2
1
1
1
1
3
3
2
1
1
3
5
1
1
3
17
1
2
1
2
2
1
2
1
2